p cnf 45 723
c ind 1 2 3 4 5 6 7 8 9  0
c ind 10 11 12 13 14 15 16 17 18 19  0
c ind 20 21 22 25 26 27 28 30 31 32  0
c ind 33 34 35 36 37 38 39 40 41 42  0
c ind 43 44 45  0
1 -2 10 0
1 -3 11 0
1 -4 12 0
1 -5 13 0
1 -6 14 0
1 -7 15 0
1 -8 16 0
1 -9 17 0
2 -1 -10 0
2 -3 18 0
2 -4 19 0
2 -5 20 0
2 -6 21 0
2 -7 22 0
2 -8 23 0
2 -9 24 0
3 -1 -11 0
3 -2 -18 0
3 -4 25 0
3 -5 26 0
3 -6 27 0
3 -7 28 0
3 -8 29 0
3 -9 30 0
4 -1 -12 0
4 -2 -19 0
4 -3 -25 0
4 -5 31 0
4 -6 32 0
4 -7 33 0
4 -8 34 0
4 -9 35 0
5 -1 -13 0
5 -2 -20 0
5 -3 -26 0
5 -4 -31 0
5 -6 36 0
5 -7 37 0
5 -8 38 0
5 -9 39 0
6 -1 -14 0
6 -2 -21 0
6 -3 -27 0
6 -4 -32 0
6 -5 -36 0
6 -7 40 0
6 -8 41 0
6 -9 42 0
7 -1 -15 0
7 -2 -22 0
7 -3 -28 0
7 -4 -33 0
7 -5 -37 0
7 -6 -40 0
7 -8 43 0
7 -9 44 0
8 -1 -16 0
8 -2 -23 0
8 -3 -29 0
8 -4 -34 0
8 -5 -38 0
8 -6 -41 0
8 -7 -43 0
8 -9 45 0
9 -1 -17 0
9 -2 -24 0
9 -3 -30 0
9 -4 -35 0
9 -5 -39 0
9 -6 -42 0
9 -7 -44 0
9 -8 -45 0
-1 -10 2 0
-1 -11 3 0
-1 -12 4 0
-1 -13 5 0
-1 -14 6 0
-1 -15 7 0
-1 -16 8 0
-1 -17 9 0
10 1 -2 0
10 -11 18 0
10 -12 19 0
10 -13 20 0
10 -14 21 0
10 -15 22 0
10 -16 23 0
10 -17 24 0
11 1 -3 0
11 -10 -18 0
11 -12 25 0
11 -13 26 0
11 -14 27 0
11 -15 28 0
11 -16 29 0
11 -17 30 0
12 1 -4 0
12 -10 -19 0
12 -11 -25 0
12 -13 31 0
12 -14 32 0
12 -15 33 0
12 -16 34 0
12 -17 35 0
13 1 -5 0
13 -10 -20 0
13 -11 -26 0
13 -12 -31 0
13 -14 36 0
13 -15 37 0
13 -16 38 0
13 -17 39 0
14 1 -6 0
14 -10 -21 0
14 -11 -27 0
14 -12 -32 0
14 -13 -36 0
14 -15 40 0
14 -16 41 0
14 -17 42 0
15 1 -7 0
15 -10 -22 0
15 -11 -28 0
15 -12 -33 0
15 -13 -37 0
15 -14 -40 0
15 -16 43 0
15 -17 44 0
16 1 -8 0
16 -10 -23 0
16 -11 -29 0
16 -12 -34 0
16 -13 -38 0
16 -14 -41 0
16 -15 -43 0
16 -17 45 0
17 1 -9 0
17 -10 -24 0
17 -11 -30 0
17 -12 -35 0
17 -13 -39 0
17 -14 -42 0
17 -15 -44 0
17 -16 -45 0
-2 10 1 0
-2 -18 3 0
-2 -19 4 0
-2 -20 5 0
-2 -21 6 0
-2 -22 7 0
-2 -23 8 0
-2 -24 9 0
-10 2 -1 0
-10 -18 11 0
-10 -19 12 0
-10 -20 13 0
-10 -21 14 0
-10 -22 15 0
-10 -23 16 0
-10 -24 17 0
18 2 -3 0
18 10 -11 0
18 -19 25 0
18 -20 26 0
18 -21 27 0
18 -22 28 0
18 -23 29 0
18 -24 30 0
19 2 -4 0
19 10 -12 0
19 -18 -25 0
19 -20 31 0
19 -21 32 0
19 -22 33 0
19 -23 34 0
19 -24 35 0
20 2 -5 0
20 10 -13 0
20 -18 -26 0
20 -19 -31 0
20 -21 36 0
20 -22 37 0
20 -23 38 0
20 -24 39 0
21 2 -6 0
21 10 -14 0
21 -18 -27 0
21 -19 -32 0
21 -20 -36 0
21 -22 40 0
21 -23 41 0
21 -24 42 0
22 2 -7 0
22 10 -15 0
22 -18 -28 0
22 -19 -33 0
22 -20 -37 0
22 -21 -40 0
22 -23 43 0
22 -24 44 0
23 2 -8 0
23 10 -16 0
23 -18 -29 0
23 -19 -34 0
23 -20 -38 0
23 -21 -41 0
23 -22 -43 0
23 -24 45 0
24 2 -9 0
24 10 -17 0
24 -18 -30 0
24 -19 -35 0
24 -20 -39 0
24 -21 -42 0
24 -22 -44 0
24 -23 -45 0
-3 11 1 0
-3 18 2 0
-3 -25 4 0
-3 -26 5 0
-3 -27 6 0
-3 -28 7 0
-3 -29 8 0
-3 -30 9 0
-11 3 -1 0
-11 18 10 0
-11 -25 12 0
-11 -26 13 0
-11 -27 14 0
-11 -28 15 0
-11 -29 16 0
-11 -30 17 0
-18 3 -2 0
-18 11 -10 0
-18 -25 19 0
-18 -26 20 0
-18 -27 21 0
-18 -28 22 0
-18 -29 23 0
-18 -30 24 0
25 3 -4 0
25 11 -12 0
25 18 -19 0
25 -26 31 0
25 -27 32 0
25 -28 33 0
25 -29 34 0
25 -30 35 0
26 3 -5 0
26 11 -13 0
26 18 -20 0
26 -25 -31 0
26 -27 36 0
26 -28 37 0
26 -29 38 0
26 -30 39 0
27 3 -6 0
27 11 -14 0
27 18 -21 0
27 -25 -32 0
27 -26 -36 0
27 -28 40 0
27 -29 41 0
27 -30 42 0
28 3 -7 0
28 11 -15 0
28 18 -22 0
28 -25 -33 0
28 -26 -37 0
28 -27 -40 0
28 -29 43 0
28 -30 44 0
29 3 -8 0
29 11 -16 0
29 18 -23 0
29 -25 -34 0
29 -26 -38 0
29 -27 -41 0
29 -28 -43 0
29 -30 45 0
30 3 -9 0
30 11 -17 0
30 18 -24 0
30 -25 -35 0
30 -26 -39 0
30 -27 -42 0
30 -28 -44 0
30 -29 -45 0
-4 12 1 0
-4 19 2 0
-4 25 3 0
-4 -31 5 0
-4 -32 6 0
-4 -33 7 0
-4 -34 8 0
-4 -35 9 0
-12 4 -1 0
-12 19 10 0
-12 25 11 0
-12 -31 13 0
-12 -32 14 0
-12 -33 15 0
-12 -34 16 0
-12 -35 17 0
-19 4 -2 0
-19 12 -10 0
-19 25 18 0
-19 -31 20 0
-19 -32 21 0
-19 -33 22 0
-19 -34 23 0
-19 -35 24 0
-25 4 -3 0
-25 12 -11 0
-25 19 -18 0
-25 -31 26 0
-25 -32 27 0
-25 -33 28 0
-25 -34 29 0
-25 -35 30 0
31 4 -5 0
31 12 -13 0
31 19 -20 0
31 25 -26 0
31 -32 36 0
31 -33 37 0
31 -34 38 0
31 -35 39 0
32 4 -6 0
32 12 -14 0
32 19 -21 0
32 25 -27 0
32 -31 -36 0
32 -33 40 0
32 -34 41 0
32 -35 42 0
33 4 -7 0
33 12 -15 0
33 19 -22 0
33 25 -28 0
33 -31 -37 0
33 -32 -40 0
33 -34 43 0
33 -35 44 0
34 4 -8 0
34 12 -16 0
34 19 -23 0
34 25 -29 0
34 -31 -38 0
34 -32 -41 0
34 -33 -43 0
34 -35 45 0
35 4 -9 0
35 12 -17 0
35 19 -24 0
35 25 -30 0
35 -31 -39 0
35 -32 -42 0
35 -33 -44 0
35 -34 -45 0
-5 13 1 0
-5 20 2 0
-5 26 3 0
-5 31 4 0
-5 -36 6 0
-5 -37 7 0
-5 -38 8 0
-5 -39 9 0
-13 5 -1 0
-13 20 10 0
-13 26 11 0
-13 31 12 0
-13 -36 14 0
-13 -37 15 0
-13 -38 16 0
-13 -39 17 0
-20 5 -2 0
-20 13 -10 0
-20 26 18 0
-20 31 19 0
-20 -36 21 0
-20 -37 22 0
-20 -38 23 0
-20 -39 24 0
-26 5 -3 0
-26 13 -11 0
-26 20 -18 0
-26 31 25 0
-26 -36 27 0
-26 -37 28 0
-26 -38 29 0
-26 -39 30 0
-31 5 -4 0
-31 13 -12 0
-31 20 -19 0
-31 26 -25 0
-31 -36 32 0
-31 -37 33 0
-31 -38 34 0
-31 -39 35 0
36 5 -6 0
36 13 -14 0
36 20 -21 0
36 26 -27 0
36 31 -32 0
36 -37 40 0
36 -38 41 0
36 -39 42 0
37 5 -7 0
37 13 -15 0
37 20 -22 0
37 26 -28 0
37 31 -33 0
37 -36 -40 0
37 -38 43 0
37 -39 44 0
38 5 -8 0
38 13 -16 0
38 20 -23 0
38 26 -29 0
38 31 -34 0
38 -36 -41 0
38 -37 -43 0
38 -39 45 0
39 5 -9 0
39 13 -17 0
39 20 -24 0
39 26 -30 0
39 31 -35 0
39 -36 -42 0
39 -37 -44 0
39 -38 -45 0
-6 14 1 0
-6 21 2 0
-6 27 3 0
-6 32 4 0
-6 36 5 0
-6 -40 7 0
-6 -41 8 0
-6 -42 9 0
-14 6 -1 0
-14 21 10 0
-14 27 11 0
-14 32 12 0
-14 36 13 0
-14 -40 15 0
-14 -41 16 0
-14 -42 17 0
-21 6 -2 0
-21 14 -10 0
-21 27 18 0
-21 32 19 0
-21 36 20 0
-21 -40 22 0
-21 -41 23 0
-21 -42 24 0
-27 6 -3 0
-27 14 -11 0
-27 21 -18 0
-27 32 25 0
-27 36 26 0
-27 -40 28 0
-27 -41 29 0
-27 -42 30 0
-32 6 -4 0
-32 14 -12 0
-32 21 -19 0
-32 27 -25 0
-32 36 31 0
-32 -40 33 0
-32 -41 34 0
-32 -42 35 0
-36 6 -5 0
-36 14 -13 0
-36 21 -20 0
-36 27 -26 0
-36 32 -31 0
-36 -40 37 0
-36 -41 38 0
-36 -42 39 0
40 6 -7 0
40 14 -15 0
40 21 -22 0
40 27 -28 0
40 32 -33 0
40 36 -37 0
40 -41 43 0
40 -42 44 0
41 6 -8 0
41 14 -16 0
41 21 -23 0
41 27 -29 0
41 32 -34 0
41 36 -38 0
41 -40 -43 0
41 -42 45 0
42 6 -9 0
42 14 -17 0
42 21 -24 0
42 27 -30 0
42 32 -35 0
42 36 -39 0
42 -40 -44 0
42 -41 -45 0
-7 15 1 0
-7 22 2 0
-7 28 3 0
-7 33 4 0
-7 37 5 0
-7 40 6 0
-7 -43 8 0
-7 -44 9 0
-15 7 -1 0
-15 22 10 0
-15 28 11 0
-15 33 12 0
-15 37 13 0
-15 40 14 0
-15 -43 16 0
-15 -44 17 0
-22 7 -2 0
-22 15 -10 0
-22 28 18 0
-22 33 19 0
-22 37 20 0
-22 40 21 0
-22 -43 23 0
-22 -44 24 0
-28 7 -3 0
-28 15 -11 0
-28 22 -18 0
-28 33 25 0
-28 37 26 0
-28 40 27 0
-28 -43 29 0
-28 -44 30 0
-33 7 -4 0
-33 15 -12 0
-33 22 -19 0
-33 28 -25 0
-33 37 31 0
-33 40 32 0
-33 -43 34 0
-33 -44 35 0
-37 7 -5 0
-37 15 -13 0
-37 22 -20 0
-37 28 -26 0
-37 33 -31 0
-37 40 36 0
-37 -43 38 0
-37 -44 39 0
-40 7 -6 0
-40 15 -14 0
-40 22 -21 0
-40 28 -27 0
-40 33 -32 0
-40 37 -36 0
-40 -43 41 0
-40 -44 42 0
43 7 -8 0
43 15 -16 0
43 22 -23 0
43 28 -29 0
43 33 -34 0
43 37 -38 0
43 40 -41 0
43 -44 45 0
44 7 -9 0
44 15 -17 0
44 22 -24 0
44 28 -30 0
44 33 -35 0
44 37 -39 0
44 40 -42 0
44 -43 -45 0
-8 16 1 0
-8 23 2 0
-8 29 3 0
-8 34 4 0
-8 38 5 0
-8 41 6 0
-8 43 7 0
-8 -45 9 0
-16 8 -1 0
-16 23 10 0
-16 29 11 0
-16 34 12 0
-16 38 13 0
-16 41 14 0
-16 43 15 0
-16 -45 17 0
-23 8 -2 0
-23 16 -10 0
-23 29 18 0
-23 34 19 0
-23 38 20 0
-23 41 21 0
-23 43 22 0
-23 -45 24 0
-29 8 -3 0
-29 16 -11 0
-29 23 -18 0
-29 34 25 0
-29 38 26 0
-29 41 27 0
-29 43 28 0
-29 -45 30 0
-34 8 -4 0
-34 16 -12 0
-34 23 -19 0
-34 29 -25 0
-34 38 31 0
-34 41 32 0
-34 43 33 0
-34 -45 35 0
-38 8 -5 0
-38 16 -13 0
-38 23 -20 0
-38 29 -26 0
-38 34 -31 0
-38 41 36 0
-38 43 37 0
-38 -45 39 0
-41 8 -6 0
-41 16 -14 0
-41 23 -21 0
-41 29 -27 0
-41 34 -32 0
-41 38 -36 0
-41 43 40 0
-41 -45 42 0
-43 8 -7 0
-43 16 -15 0
-43 23 -22 0
-43 29 -28 0
-43 34 -33 0
-43 38 -37 0
-43 41 -40 0
-43 -45 44 0
45 8 -9 0
45 16 -17 0
45 23 -24 0
45 29 -30 0
45 34 -35 0
45 38 -39 0
45 41 -42 0
45 43 -44 0
-9 17 1 0
-9 24 2 0
-9 30 3 0
-9 35 4 0
-9 39 5 0
-9 42 6 0
-9 44 7 0
-9 45 8 0
-17 9 -1 0
-17 24 10 0
-17 30 11 0
-17 35 12 0
-17 39 13 0
-17 42 14 0
-17 44 15 0
-17 45 16 0
-24 9 -2 0
-24 17 -10 0
-24 30 18 0
-24 35 19 0
-24 39 20 0
-24 42 21 0
-24 44 22 0
-24 45 23 0
-30 9 -3 0
-30 17 -11 0
-30 24 -18 0
-30 35 25 0
-30 39 26 0
-30 42 27 0
-30 44 28 0
-30 45 29 0
-35 9 -4 0
-35 17 -12 0
-35 24 -19 0
-35 30 -25 0
-35 39 31 0
-35 42 32 0
-35 44 33 0
-35 45 34 0
-39 9 -5 0
-39 17 -13 0
-39 24 -20 0
-39 30 -26 0
-39 35 -31 0
-39 42 36 0
-39 44 37 0
-39 45 38 0
-42 9 -6 0
-42 17 -14 0
-42 24 -21 0
-42 30 -27 0
-42 35 -32 0
-42 39 -36 0
-42 44 40 0
-42 45 41 0
-44 9 -7 0
-44 17 -15 0
-44 24 -22 0
-44 30 -28 0
-44 35 -33 0
-44 39 -37 0
-44 42 -40 0
-44 45 43 0
-45 9 -8 0
-45 17 -16 0
-45 24 -23 0
-45 30 -29 0
-45 35 -34 0
-45 39 -38 0
-45 42 -41 0
-45 44 -43 0
23 0
24 0
29 0
